<?xml version = "1.0" standalone="yes"?>
<!-- This file has been generated by DOcplex version 2.23.222  -->
<CPLEXSolution version="1.0">
 <header
   problemName="CVRP"
   objectiveValue="6478.12"
  />
 <variables>
  <variable name="x_0_1" index="0" value="1.00000"/>
  <variable name="x_0_3" index="2" value="1.00000"/>
  <variable name="x_0_4" index="3" value="1.00000"/>
  <variable name="x_0_6" index="5" value="1.00000"/>
  <variable name="x_0_7" index="6" value="1.00000"/>
  <variable name="x_0_13" index="12" value="1.00000"/>
  <variable name="x_1_5" index="17" value="1.00000"/>
  <variable name="x_2_0" index="26" value="1.00000"/>
  <variable name="x_3_8" index="46" value="1.00000"/>
  <variable name="x_4_0" index="52" value="1.00000"/>
  <variable name="x_5_0" index="65" value="1.00000"/>
  <variable name="x_6_9" index="86" value="1.00000"/>
  <variable name="x_7_12" index="102" value="1.00000"/>
  <variable name="x_8_0" index="104" value="1.00000"/>
  <variable name="x_9_11" index="127" value="1.00000"/>
  <variable name="x_10_0" index="130" value="1.00000"/>
  <variable name="x_11_10" index="153" value="1.00000"/>
  <variable name="x_12_0" index="156" value="1.00000"/>
  <variable name="x_13_2" index="171" value="1.00000"/>
  <variable name="u_1" index="182" value="3.00000"/>
  <variable name="u_2" index="183" value="73.00000"/>
  <variable name="u_3" index="184" value="33.00000"/>
  <variable name="u_4" index="185" value="73.00000"/>
  <variable name="u_5" index="186" value="73.00000"/>
  <variable name="u_6" index="187" value="2.00000"/>
  <variable name="u_7" index="188" value="28.00000"/>
  <variable name="u_8" index="189" value="73.00000"/>
  <variable name="u_9" index="190" value="29.00000"/>
  <variable name="u_10" index="191" value="68.00000"/>
  <variable name="u_11" index="192" value="39.00000"/>
  <variable name="u_12" index="193" value="73.00000"/>
  <variable name="u_13" index="194" value="50.00000"/>
 </variables>
</CPLEXSolution>
